
Gurobi 11.0.2 (win64) logging started Mon Aug 19 10:08:40 2024

Set parameter LogFile to value "D:\Documenti\Scuola\Laurea magistrale unibs\laurea-unibs-mkfsp\output\2024-08-19T06_36_50.601237\logs\instance10_bucket1.log"
Set parameter TimeLimit to value 350
Set parameter MIPGap to value 0
Gurobi Optimizer version 11.0.2 build v11.0.2rc0 (win64 - Windows 10.0 (19045.2))

CPU model: Intel(R) Core(TM) i5-4670 CPU @ 3.40GHz, instruction set [SSE2|AVX|AVX2]
Thread count: 4 physical cores, 4 logical processors, using up to 4 threads

Optimize a model with 1082 rows, 3045 columns and 83181 nonzeros
Model fingerprint: 0x7534fadb
Variable types: 0 continuous, 3045 integer (2975 binary)
Coefficient statistics:
  Matrix range     [1e+00, 8e+03]
  Objective range  [7e+02, 8e+03]
  Bounds range     [1e+00, 1e+00]
  RHS range        [1e+00, 4e+05]
Found heuristic solution: objective 404902.00000
Presolve time: 0.13s
Presolved: 1082 rows, 3045 columns, 83181 nonzeros
Variable types: 0 continuous, 3045 integer (2975 binary)

Root relaxation: objective 4.175390e+05, 778 iterations, 0.01 seconds (0.01 work units)

    Nodes    |    Current Node    |     Objective Bounds      |     Work
 Expl Unexpl |  Obj  Depth IntInf | Incumbent    BestBd   Gap | It/Node Time

H    0     0                    417539.00000 417539.000  0.00%     -    0s
     0     0 417539.000    0  265 417539.000 417539.000  0.00%     -    0s

Explored 1 nodes (778 simplex iterations) in 0.16 seconds (0.14 work units)
Thread count was 4 (of 4 available processors)

Solution count 2: 417539 404902 

Optimal solution found (tolerance 0.00e+00)
Best objective 4.175390000000e+05, best bound 4.175390000000e+05, gap 0.0000%
